(written by ASE)

8 atoms
2 atom types

0.0              3.72527337  xlo xhi
0.0      4.9434581572268304  ylo yhi
0.0      4.9073292748949369  zlo zhi
                      0                       0     -0.5965849942003244  xy xz yz

Masses

1      26.981538493059151 # Al
2      58.693399984901454 # Ni

Atoms # atomic

     1   1                       0      2.1734365765458565      2.4536646368774071
     2   1              1.86263669     0.62922151384349378      3.8215189269286354
     3   1              1.86263669      3.7176516491830118      1.0858103479663026
     4   2                       0                       0                       0
     5   2                       0      2.4717290780433534  4.9673966247330649e-09
     6   2                       0    -0.29829249270282737      2.4536646429849278
     7   2              1.86263669      1.1992677465093811       1.353893135278575
     8   2              1.86263669      3.1476054165171243       3.553436139616363
