5
Lattice="4.0351362860484645 5.454895271015765e-07 -1.727556810996943e-08 -2.0175686808665216 3.4945300947694755 2.9160392372668672e-08 -2.102971959876259e-08 2.8781238879856693e-08 4.896265242684819" Properties=species:S:1:pos:R:3 source="Materials Project" material_id=mp-1057 phase_key=Al3Ni2 query_formula=Al3Ni2 formula_pretty=Al3Ni2 selected_candidate=T selection_rank=1 retrieval_time_utc=2026-07-20T14:16:25Z energy_above_hull_eV_per_atom=0.0 formation_energy_per_atom_eV=-0.6442166279999995 is_stable=T step6_phase=Al3Ni2 step6_material_id=mp-1057 step6_mode=full_cell step6_model=MACE-MP-0 step6_model_value=small step6_device=cpu step6_dtype=float64 step6_convergence_status=CONVERGED step6_optimizer_steps=33 step6_initial_energy_eV=-25.78055209010038 step6_final_energy_eV=-25.798824772972484 step6_initial_max_force_eV_per_A=0.10259415553179091 step6_final_max_force_eV_per_A=0.009253892285241845 step6_initial_stress_eV_per_A3_json="[-0.023517664718076,-0.023518164956813057,-0.01605193361656587,-1.1946262195306376e-08,1.189897118181321e-09,-3.098263829685444e-07]" step6_final_stress_eV_per_A3_json="[-6.590182962362398e-05,-6.592218368073582e-05,0.0002693647048544764,2.393013502864925e-09,-1.8430118530062345e-09,-1.4476088902322046e-09]" step6_initial_volume_A3=67.4350609096183 step6_final_volume_A3=69.04177735149862 step6_maximum_internal_displacement_A=0.006822674984666958 step6_source_structure_path=data/processed/ni_al_structures/selected/Al3Ni2.extxyz step6_execution_timestamp_utc=2026-07-26T11:30:39Z step6_configuration_sha256=9d3e42c304f9eb02a898d067bdcd95f9ccbc4b35790769ae6c85f879d518f176 pbc="T T T"
Al 2.4965505482005726e-15 9.3374924311672394e-16 1.5845432731753635e-15
Al -3.1947901598771779e-07 2.3296868650194997 3.1663420775479798
Al 2.0175679036312424 1.1648438040207429 1.7299231770216652
Ni -3.3185580500889357e-07 2.3296869113041323 0.71705932923120763
Ni 2.0175679160080318 1.1648437577361095 4.1792059253384393
