16
Lattice="4.733918385346359 -2.086065857157294e-06 -7.153896917351786e-12 -2.5094359573216857e-06 6.692997191411199 2.8695874311014028e-11 -1.0427635263157986e-11 3.242248390149412e-11 7.4110435628184" Properties=species:S:1:pos:R:3 source="Materials Project" material_id=mp-622209 phase_key=Al3Ni query_formula=Al3Ni formula_pretty=Al3Ni selected_candidate=T selection_rank=1 retrieval_time_utc=2026-07-20T14:16:25Z energy_above_hull_eV_per_atom=0.0 formation_energy_per_atom_eV=-0.4187757031250001 is_stable=T step6_phase=Al3Ni step6_material_id=mp-622209 step6_mode=full_cell step6_model=MACE-MP-0 step6_model_value=small step6_device=cpu step6_dtype=float64 step6_convergence_status=CONVERGED step6_optimizer_steps=40 step6_initial_energy_eV=-74.69571087869917 step6_final_energy_eV=-74.81024262576469 step6_initial_max_force_eV_per_A=0.2127929489094258 step6_final_max_force_eV_per_A=0.005809431958205054 step6_initial_stress_eV_per_A3_json="[-0.016041624498206574,-0.018531779439234102,-0.02025182492773854,5.077573533412292e-11,-2.0965047274540503e-12,-5.915717316885883e-07]" step6_final_stress_eV_per_A3_json="[-0.0001389340925515161,-0.00013103583997058207,0.0004761163665090529,2.39967288241613e-12,-6.15842812497585e-13,-1.6737892615033657e-07]" step6_initial_volume_A3=228.5507372689479 step6_final_volume_A3=234.8122635612436 step6_maximum_internal_displacement_A=0.06037605856961677 step6_source_structure_path=data/processed/ni_al_structures/selected/Al3Ni.extxyz step6_execution_timestamp_utc=2026-07-26T11:30:20Z step6_configuration_sha256=9d3e42c304f9eb02a898d067bdcd95f9ccbc4b35790769ae6c85f879d518f176 pbc="T T T"
Al 4.3587461069734648 0.026597257539199681 1.8527608906894768
Al 1.7552460149155893 1.1071247709078564 3.2851041855465204
Al 1.755246014982965 1.1071247708476677 0.42041759596585476
Al 4.1222048229221366 2.239370372754661 4.1259396332742071
Al 0.61171105297782635 4.453624732623104 3.2851039295657429
Al 2.9786698609169995 5.5858703345300968 6.9906259668740933
Al 0.61171105296862083 4.453624732678179 0.42041785188598113
Al 2.9786698609843731 5.5858703344699103 4.1259393772934292
Al 4.1222048229313435 2.2393703726995868 6.9906257109539727
Al 2.7421308487152825 3.3730980268829889 1.8527608906992068
Al 0.37516976892649984 6.6663978478385664 5.5582826721504741
Al 1.9917850271846815 3.3198970784947766 5.558282672140745
Ni 2.0600917879790539 5.7873507208527588 1.8527608906741859
Ni 0.30686452681196974 2.4408535146689956 1.8527608907461683
Ni 2.6738240879209103 0.90564438452500717 5.5582826721657641
Ni 4.4270513490879937 4.2521415907087716 5.5582826720937826
