8
Lattice="3.820900208638465 -2.7345870016903494e-17 -1.0727735719057354e-17 -1.3173668710256769e-16 4.9307480217449635 -0.6931837398025215 -2.368307803683397e-16 -0.1599229466540227 4.976666283059187" Properties=species:S:1:pos:R:3 source="Materials Project" material_id=mp-16514 phase_key=Al3Ni5 query_formula=Al3Ni5 formula_pretty=Al3Ni5 selected_candidate=T selection_rank=1 retrieval_time_utc=2026-07-20T14:16:25Z energy_above_hull_eV_per_atom=0.0 formation_energy_per_atom_eV=-0.5632505449999989 is_stable=T step6_phase=Al3Ni5 step6_material_id=mp-16514 step6_mode=full_cell step6_model=MACE-MP-0 step6_model_value=small step6_device=cpu step6_dtype=float64 step6_convergence_status=CONVERGED step6_optimizer_steps=34 step6_initial_energy_eV=-44.56807607688442 step6_final_energy_eV=-44.639280982911714 step6_initial_max_force_eV_per_A=0.16080041576105142 step6_final_max_force_eV_per_A=0.007496331098762014 step6_initial_stress_eV_per_A3_json="[-0.04042359454436498,-0.0374954184483201,-0.03847086961862685,0.004519597716073869,1.4748760648434658e-17,1.8244816712616336e-17]" step6_final_stress_eV_per_A3_json="[0.0006148686007560159,0.0002255978904532953,0.0003028567540184644,-0.0003574905755803338,-6.13278086966576e-17,-3.322193953658472e-17]" step6_initial_volume_A3=90.37206581100938 step6_final_volume_A3=93.33630626034235 step6_maximum_internal_displacement_A=0.03554655046017107 step6_source_structure_path=data/processed/ni_al_structures/selected/Al3Ni5.extxyz step6_execution_timestamp_utc=2026-07-26T11:31:05Z step6_configuration_sha256=9d3e42c304f9eb02a898d067bdcd95f9ccbc4b35790769ae6c85f879d518f176 pbc="T T T"
Al 2.4144237866837892e-09 2.3854125377604602 2.1417412732070593
Al 1.9104501068454389 0.95435482752338885 3.7356142473555884
Al 1.9104501068454385 3.8164702477098817 0.54786829859693342
Ni 2.5177709336624591e-09 6.460815151777392e-11 1.2321477460093863e-09
Ni 2.6278936512976628e-09 2.4653740107089255 -0.34659186891929095
Ni 2.6278933821485448e-09 -0.079961473516514198 2.4883331428521012
Ni 1.9104501069557318 1.3421012431247348 1.2050048471497861
Ni 1.9104501069557314 3.4287238316410642 3.0784776983613429
