4
Lattice="3.5566391486815903 -4.266807852255986e-18 9.761843051669246e-19 -3.6050280127356133e-17 3.5567600208018852 1.0492463355824258e-15 4.530399052526801e-19 3.6500635315136295e-16 3.556759351998055" Properties=species:S:1:pos:R:3 source="Materials Project" material_id=mp-2593 phase_key=AlNi3 query_formula=AlNi3 formula_pretty=AlNi3 selected_candidate=T selection_rank=1 retrieval_time_utc=2026-07-20T14:16:25Z energy_above_hull_eV_per_atom=0.0 formation_energy_per_atom_eV=-0.4264197774999996 is_stable=T step6_phase=AlNi3 step6_material_id=mp-2593 step6_mode=full_cell step6_model=MACE-MP-0 step6_model_value=small step6_device=cpu step6_dtype=float64 step6_convergence_status=CONVERGED step6_optimizer_steps=14 step6_initial_energy_eV=-22.836292364226455 step6_final_energy_eV=-22.858771955109983 step6_initial_max_force_eV_per_A=5.978495219488439e-08 step6_final_max_force_eV_per_A=4.588836767778199e-09 step6_initial_stress_eV_per_A3_json="[-0.03664195876647671,-0.036619047115213375,-0.03661917398439417,-6.518081729040704e-18,2.6831920314577485e-18,5.8249061297221476e-18]" step6_final_stress_eV_per_A3_json="[8.19518802540776e-05,9.648868500045964e-05,9.640822392199008e-05,1.8403249669546238e-16,2.3667225268382706e-17,1.3015561319414371e-17]" step6_initial_volume_A3=43.727854385354966 step6_final_volume_A3=44.99340391956207 step6_maximum_internal_displacement_A=3.3046534977218197e-09 step6_source_structure_path=data/processed/ni_al_structures/selected/AlNi3.extxyz step6_execution_timestamp_utc=2026-07-26T11:31:07Z step6_configuration_sha256=9d3e42c304f9eb02a898d067bdcd95f9ccbc4b35790769ae6c85f879d518f176 pbc="T T T"
Al 1.1684909935786949e-15 -2.3590585351427781e-09 2.3590579222883854e-09
Ni 1.3430302698890534e-15 1.7783800076693899 1.7783796787305803
Ni 1.7783195743407967 -2.2733814424724173e-09 1.778379678730535
Ni 1.7783195743407967 1.778380007669434 2.273381113969117e-09
