(written by ASE)

4 atoms
2 atom types

0.0      3.5229346000000001  xlo xhi
0.0      3.5231152899999998  ylo yhi
0.0      3.5231142900000001  zlo zhi
                      0                       0                       0  xy xz yz

Masses

1      26.981538493059151 # Al
2      58.693399984901454 # Ni

Atoms # atomic

     1   1                       0                       0                       0
     2   2                       0      1.7615576399999999              1.76155715
     3   2      1.7614672999999998                       0              1.76155715
     4   2      1.7614672999999998      1.7615576399999999                       0
