(written by ASE)

5 atoms
2 atom types

0.0      3.9941960000000001  xlo xhi
0.0      3.4590740000000002  ylo yhi
0.0      4.8808619999999996  zlo zhi
              -1.997099                       0                       0  xy xz yz

Masses

1      26.981538493059151 # Al
2      58.693399984901454 # Ni

Atoms # atomic

     1   1                       0                       0                       0
     2   1 -2.6599999999999999e-06      2.3060504900000001              3.16320369
     3   1      1.9970996599999999      1.1530235099999999              1.71765831
     4   2 -2.6599999999999999e-06      2.3060504900000001     0.71539770999999996
     5   2      1.9970996599999999      1.1530235099999999      4.1654642900000001
