16
Lattice="4.77057136 1.09e-05 0.0 1.583e-05 6.55890518 0.0 0.0 0.0 7.30433827" Properties=species:S:1:pos:R:3:MACE_forces_eV_per_A:R:3 source="Materials Project" material_id=mp-622209 phase_key=Al3Ni query_formula=Al3Ni formula_pretty=Al3Ni selected_candidate=T selection_rank=1 retrieval_time_utc=2026-07-20T14:16:25Z energy_above_hull_eV_per_atom=0.0 formation_energy_per_atom_eV=-0.4187757031250001 is_stable=T MACE_total_energy_eV=-74.69571087869917 MACE_energy_per_atom_eV=-4.668481929918698 MACE_stress_eV_per_A3="-0.016041624498206574 -0.0185317794392341 -0.02025182492773855 5.077573640335501e-11 -2.09650421849748e-12 -5.915717316881025e-07" source_material_id=mp-622209 source_formula=Al3Ni model_family=MACE model_name=MACE-MP-0 model_size=small device=cpu default_dtype=float64 dispersion=F evaluation_type="zero-shot single-point" evaluation_time_utc=2026-07-21T12:06:56Z ASE_stress_order="xx yy zz yz xz xy" pbc="T T T"
Al       4.36847323       0.06812428       1.82608457       0.14236295      -0.01034049      -0.00000001
Al       1.73555575       1.12368636       3.24238648       0.03295323      -0.10609974      -0.01049641
Al       1.73555575       1.12368636       0.40978265       0.03295321      -0.10609973       0.01049644
Al       4.12080542       2.15576918       4.06197282       0.03333676       0.10632427       0.01023396
Al       0.64978177       4.40314690       3.24236545      -0.03333676      -0.10632427      -0.01023396
Al       3.03503144       5.43522972       6.89455562      -0.03295321       0.10609973      -0.01049644
Al       0.64978177       4.40314690       0.40980369      -0.03333677      -0.10632428       0.01023393
Al       3.03503144       5.43522972       4.06195179      -0.03295323       0.10609974       0.01049641
Al       4.12080542       2.15576918       6.89453458       0.03333677       0.10632428      -0.01023393
Al       2.78737860       3.34758139       1.82608457      -0.14219298      -0.01047968      -0.00000001
Al       0.40211396       6.49079180       5.47825370      -0.14236295       0.01034049       0.00000001
Al       1.98320859       3.21133469       5.47825370       0.14219298       0.01047968       0.00000001
Ni       2.11950384       5.71333413       1.82608457      -0.19424971      -0.08683590      -0.00000001
Ni       0.26580417       2.43386576       1.82608457       0.19423975      -0.08690085      -0.00000004
Ni       2.65108335       0.84558195       5.47825370       0.19424971       0.08683590       0.00000001
Ni       4.50478302       4.12505032       5.47825370      -0.19423975       0.08690085       0.00000004
