2
Lattice="2.85971129 0.0 -0.0 -0.0 2.85971129 -0.0 0.0 -0.0 2.85971129" Properties=species:S:1:pos:R:3:MACE_forces_eV_per_A:R:3 source="Materials Project" material_id=mp-1487 phase_key=AlNi query_formula=AlNi formula_pretty=AlNi selected_candidate=T selection_rank=1 retrieval_time_utc=2026-07-20T14:16:25Z energy_above_hull_eV_per_atom=0.0 formation_energy_per_atom_eV=-0.68490115 is_stable=T MACE_total_energy_eV=-10.813681752983006 MACE_energy_per_atom_eV=-5.406840876491503 MACE_stress_eV_per_A3="-0.029697285519781402 -0.02969728551978137 -0.02969728551978138 -5.582584130504889e-17 -4.313167677181642e-17 -5.6680676502897e-17" source_material_id=mp-1487 source_formula=AlNi model_family=MACE model_name=MACE-MP-0 model_size=small device=cpu default_dtype=float64 dispersion=F evaluation_type="zero-shot single-point" evaluation_time_utc=2026-07-21T12:06:56Z ASE_stress_order="xx yy zz yz xz xy" pbc="T T T"
Al       1.42985564       1.42985564       1.42985564       0.00000003       0.00000003       0.00000003
Ni       0.00000000       0.00000000       0.00000000      -0.00000003      -0.00000003      -0.00000003
