8
Lattice="3.72527337 0.0 0.0 0.0 4.9112235 -0.56361537 0.0 -0.03319863 4.94334827" Properties=species:S:1:pos:R:3 source="Materials Project" material_id=mp-16514 phase_key=Al3Ni5 query_formula=Al3Ni5 formula_pretty=Al3Ni5 selected_candidate=T selection_rank=1 retrieval_time_utc=2026-07-20T14:16:25Z energy_above_hull_eV_per_atom=0.0 formation_energy_per_atom_eV=-0.5632505449999989 is_stable=T step6_phase=Al3Ni5 step6_material_id=mp-16514 step6_mode=atomic_only step6_model=MACE-MP-0 step6_model_value=small step6_device=cpu step6_dtype=float64 step6_convergence_status=CONVERGED step6_optimizer_steps=24 step6_initial_energy_eV=-44.56807607688442 step6_final_energy_eV=-44.571700551582545 step6_initial_max_force_eV_per_A=0.16080041576105142 step6_final_max_force_eV_per_A=0.009277188605651564 step6_initial_stress_eV_per_A3_json="[-0.04042359454436498,-0.0374954184483201,-0.03847086961862685,0.004519597716073869,1.4748760648434658e-17,1.8244816712616336e-17]" step6_final_stress_eV_per_A3_json="[-0.04278251294383705,-0.03747789896253064,-0.03838921395890488,0.0042225097211441845,3.23006836920654e-17,-2.3849825533770364e-18]" step6_initial_volume_A3=90.37206581100938 step6_final_volume_A3=90.37206581100938 step6_maximum_internal_displacement_A=0.021351095144851947 step6_source_structure_path=data/processed/ni_al_structures/selected/Al3Ni5.extxyz step6_execution_timestamp_utc=2026-07-26T11:29:03Z step6_configuration_sha256=9d3e42c304f9eb02a898d067bdcd95f9ccbc4b35790769ae6c85f879d518f176 pbc="T T T"
Al 2.2817860066018722e-09 2.4390124348700355 2.1898664510310089
Al 1.8626366876300036 1.0538754293956942 3.7325947024539574
Al 1.8626366876300036 3.8241494404628402 0.64713819997959687
Ni 2.3867209894533282e-09 7.4863579388681615e-11 1.2516828199717054e-09
Ni 2.3994266947680545e-09 2.4556117498915517 -0.28180768382958493
Ni 2.3994270909932044e-09 -0.016599314893670343 2.4716741363669676
Ni 1.8626366876363161 1.3616953994678227 1.2225977354724966
Ni 1.8626366876363161 3.5163294707308648 3.1571351672738746
