5
Lattice="3.994196 0.0 0.0 -1.997099 3.459074 0.0 0.0 0.0 4.880862" Properties=species:S:1:pos:R:3 source="Materials Project" material_id=mp-1057 phase_key=Al3Ni2 query_formula=Al3Ni2 formula_pretty=Al3Ni2 selected_candidate=T selection_rank=1 retrieval_time_utc=2026-07-20T14:16:25Z energy_above_hull_eV_per_atom=0.0 formation_energy_per_atom_eV=-0.6442166279999995 is_stable=T step6_phase=Al3Ni2 step6_material_id=mp-1057 step6_mode=atomic_only step6_model=MACE-MP-0 step6_model_value=small step6_device=cpu step6_dtype=float64 step6_convergence_status=CONVERGED step6_optimizer_steps=10 step6_initial_energy_eV=-25.78055209010038 step6_final_energy_eV=-25.781655115853006 step6_initial_max_force_eV_per_A=0.10259415553179091 step6_final_max_force_eV_per_A=0.009127100352973972 step6_initial_stress_eV_per_A3_json="[-0.023517664718076,-0.023518164956813057,-0.01605193361656587,-1.1946262195306376e-08,1.189897118181321e-09,-3.098263829685444e-07]" step6_final_stress_eV_per_A3_json="[-0.022666518222939136,-0.02266679266341074,-0.01561971895362315,-1.9839587853724264e-08,1.985728906456859e-08,-1.2999726067506685e-07]" step6_initial_volume_A3=67.4350609096183 step6_final_volume_A3=67.4350609096183 step6_maximum_internal_displacement_A=0.008259902857096638 step6_source_structure_path=data/processed/ni_al_structures/selected/Al3Ni2.extxyz step6_execution_timestamp_utc=2026-07-26T11:28:41Z step6_configuration_sha256=9d3e42c304f9eb02a898d067bdcd95f9ccbc4b35790769ae6c85f879d518f176 pbc="T T T"
Al -1.2658371990979758e-16 -1.5680329385726093e-16 7.3882739338361507e-17
Al -8.3481113426862504e-07 2.3060493545814094 3.1549437874225976
Al 1.9970978348111346 1.1530246454185904 1.7259182125774029
Ni -7.446974226172704e-07 2.3060493928532853 0.71958354748727738
Ni 1.9970977446974225 1.1530246071467152 4.1612784525127227
