16
Lattice="4.77057136 1.09e-05 0.0 1.583e-05 6.55890518 0.0 0.0 0.0 7.30433827" Properties=species:S:1:pos:R:3 source="Materials Project" material_id=mp-622209 phase_key=Al3Ni query_formula=Al3Ni formula_pretty=Al3Ni selected_candidate=T selection_rank=1 retrieval_time_utc=2026-07-20T14:16:25Z energy_above_hull_eV_per_atom=0.0 formation_energy_per_atom_eV=-0.4187757031250001 is_stable=T step6_phase=Al3Ni step6_material_id=mp-622209 step6_mode=atomic_only step6_model=MACE-MP-0 step6_model_value=small step6_device=cpu step6_dtype=float64 step6_convergence_status=CONVERGED step6_optimizer_steps=28 step6_initial_energy_eV=-74.69571087869917 step6_final_energy_eV=-74.73545759047205 step6_initial_max_force_eV_per_A=0.21279294890942585 step6_final_max_force_eV_per_A=0.009378659891460002 step6_initial_stress_eV_per_A3_json="[-0.016041624498206574,-0.0185317794392341,-0.02025182492773855,5.077573640335501e-11,-2.09650421849748e-12,-5.915717316881025e-07]" step6_final_stress_eV_per_A3_json="[-0.013910533155144584,-0.021967837074539424,-0.022167759531864537,2.095876308085519e-12,-1.4559524771310043e-12,9.77037607712471e-07]" step6_initial_volume_A3=228.5507372689479 step6_final_volume_A3=228.5507372689479 step6_maximum_internal_displacement_A=0.05055719702398555 step6_source_structure_path=data/processed/ni_al_structures/selected/Al3Ni.extxyz step6_execution_timestamp_utc=2026-07-26T11:28:34Z step6_configuration_sha256=9d3e42c304f9eb02a898d067bdcd95f9ccbc4b35790769ae6c85f879d518f176 pbc="T T T"
Al 4.3818924657540022 0.034214238201117485 1.8260845677934108
Al 1.7539802963086151 1.098778753113937 3.246297560883872
Al 1.75398029573461 1.0987787528376871 0.40587157392914419
Al 4.1392657579014944 2.1806888165002967 4.0580419092269766
Al 0.63132143209850689 4.3782272634997046 3.2462963607730235
Al 3.0166068942653905 5.4601373271623137 6.8984666960708569
Al 0.63132143250685235 4.3782272633757549 0.40587277393452703
Al 3.0166068936913857 5.4601373268860636 4.0580407091161286
Al 4.1392657574931482 2.1806888166242451 6.8984654960654739
Al 2.7739684849409567 3.3136597958219043 1.8260845674052466
Al 0.38869472424599871 6.5247018417988834 5.4782537022065894
Al 1.9966187050590445 3.245256284178097 5.4782537025947535
Ni 2.0805303491157163 5.6811301367815403 1.8260845676130206
Ni 0.3047727057632309 2.4016712611829822 1.8260845676820816
Ni 2.6900568408842851 0.87778594321846015 5.4782537023869802
Ni 4.4658144842367706 4.157244818817019 5.478253702317919
