2
Lattice="2.85971129 0.0 -0.0 -0.0 2.85971129 -0.0 0.0 -0.0 2.85971129" Properties=species:S:1:pos:R:3 source="Materials Project" material_id=mp-1487 phase_key=AlNi query_formula=AlNi formula_pretty=AlNi selected_candidate=T selection_rank=1 retrieval_time_utc=2026-07-20T14:16:25Z energy_above_hull_eV_per_atom=0.0 formation_energy_per_atom_eV=-0.68490115 is_stable=T step6_phase=AlNi step6_material_id=mp-1487 step6_mode=atomic_only step6_model=MACE-MP-0 step6_model_value=small step6_device=cpu step6_dtype=float64 step6_convergence_status=ALREADY_CONVERGED step6_optimizer_steps=0 step6_initial_energy_eV=-10.813681752983006 step6_final_energy_eV=-10.813681752983006 step6_initial_max_force_eV_per_A=4.888791560310382e-08 step6_final_max_force_eV_per_A=4.888791560310382e-08 step6_initial_stress_eV_per_A3_json="[-0.029697285519781402,-0.02969728551978137,-0.02969728551978138,-5.582584130504889e-17,-4.313167677181642e-17,-5.6680676502897e-17]" step6_final_stress_eV_per_A3_json="[-0.029697285519781402,-0.02969728551978137,-0.02969728551978138,-5.582584130504889e-17,-4.313167677181642e-17,-5.6680676502897e-17]" step6_initial_volume_A3=23.386572118200654 step6_final_volume_A3=23.386572118200654 step6_maximum_internal_displacement_A=0.0 step6_source_structure_path=data/processed/ni_al_structures/selected/AlNi.extxyz step6_execution_timestamp_utc=2026-07-26T11:28:42Z step6_configuration_sha256=9d3e42c304f9eb02a898d067bdcd95f9ccbc4b35790769ae6c85f879d518f176 pbc="T T T"
Al 1.42985564 1.42985564 1.42985564
Ni 0 0 0
