4
Lattice="3.5229346 0.0 -0.0 0.0 3.52311529 0.0 0.0 0.0 3.52311429" Properties=species:S:1:pos:R:3 source="Materials Project" material_id=mp-2593 phase_key=AlNi3 query_formula=AlNi3 formula_pretty=AlNi3 selected_candidate=T selection_rank=1 retrieval_time_utc=2026-07-20T14:16:25Z energy_above_hull_eV_per_atom=0.0 formation_energy_per_atom_eV=-0.4264197774999996 is_stable=T step6_phase=AlNi3 step6_material_id=mp-2593 step6_mode=atomic_only step6_model=MACE-MP-0 step6_model_value=small step6_device=cpu step6_dtype=float64 step6_convergence_status=ALREADY_CONVERGED step6_optimizer_steps=0 step6_initial_energy_eV=-22.836292364226455 step6_final_energy_eV=-22.836292364226455 step6_initial_max_force_eV_per_A=5.978495219488439e-08 step6_final_max_force_eV_per_A=5.978495219488439e-08 step6_initial_stress_eV_per_A3_json="[-0.03664195876647671,-0.036619047115213375,-0.03661917398439417,-6.518081729040704e-18,2.6831920314577485e-18,5.8249061297221476e-18]" step6_final_stress_eV_per_A3_json="[-0.03664195876647671,-0.036619047115213375,-0.03661917398439417,-6.518081729040704e-18,2.6831920314577485e-18,5.8249061297221476e-18]" step6_initial_volume_A3=43.727854385354966 step6_final_volume_A3=43.727854385354966 step6_maximum_internal_displacement_A=0.0 step6_source_structure_path=data/processed/ni_al_structures/selected/AlNi3.extxyz step6_execution_timestamp_utc=2026-07-26T11:29:04Z step6_configuration_sha256=9d3e42c304f9eb02a898d067bdcd95f9ccbc4b35790769ae6c85f879d518f176 pbc="T T T"
Al 0 0 0
Ni 0 1.7615576399999999 1.76155715
Ni 1.7614673000000001 0 1.76155715
Ni 1.7614673000000001 1.7615576399999999 0
