32
Lattice="8.1 0.0 0.0 0.0 8.1 0.0 0.0 0.0 8.1" Properties=species:S:1:pos:R:3:MACE_forces:R:3 configuration_label="Perfect FCC aluminum" MACE_total_energy_eV=-118.7061767578125 MACE_energy_per_atom_eV=-3.7095680236816406 MACE_stress="-0.001156202401034534 -0.0011562022846192122 -0.0011562015861272812 1.0227028945930527e-10 -6.490606385689546e-10 -6.831974430632215e-10" pbc="T T T"
Al       0.00000000       0.00000000       0.00000000      -0.00000078      -0.00000088      -0.00000085
Al       0.00000000       2.02500000       2.02500000      -0.00000014      -0.00000033      -0.00000033
Al       2.02500000       0.00000000       2.02500000      -0.00000034      -0.00000014      -0.00000021
Al       2.02500000       2.02500000       0.00000000      -0.00000046      -0.00000029      -0.00000016
Al       0.00000000       0.00000000       4.05000000      -0.00000073      -0.00000091      -0.00000045
Al       0.00000000       2.02500000       6.07500000      -0.00000056      -0.00000012       0.00000132
Al       2.02500000       0.00000000       6.07500000      -0.00000028      -0.00000064       0.00000128
Al       2.02500000       2.02500000       4.05000000      -0.00000019      -0.00000010      -0.00000084
Al       0.00000000       4.05000000       0.00000000      -0.00000075      -0.00000049      -0.00000084
Al       0.00000000       6.07500000       2.02500000      -0.00000040       0.00000140      -0.00000015
Al       2.02500000       4.05000000       2.02500000      -0.00000010      -0.00000070      -0.00000000
Al       2.02500000       6.07500000       0.00000000      -0.00000036       0.00000139      -0.00000057
Al       0.00000000       4.05000000       4.05000000      -0.00000060      -0.00000058      -0.00000056
Al       0.00000000       6.07500000       6.07500000      -0.00000079       0.00000144       0.00000155
Al       2.02500000       4.05000000       6.07500000      -0.00000023      -0.00000047       0.00000128
Al       2.02500000       6.07500000       4.05000000      -0.00000027       0.00000124      -0.00000064
Al       4.05000000       0.00000000       0.00000000      -0.00000047      -0.00000087      -0.00000063
Al       4.05000000       2.02500000       2.02500000      -0.00000076      -0.00000013      -0.00000016
Al       6.07500000       0.00000000       2.02500000       0.00000132      -0.00000070      -0.00000029
Al       6.07500000       2.02500000       0.00000000       0.00000146      -0.00000015      -0.00000060
Al       4.05000000       0.00000000       4.05000000      -0.00000070      -0.00000080      -0.00000057
Al       4.05000000       2.02500000       6.07500000      -0.00000053      -0.00000010       0.00000132
Al       6.07500000       0.00000000       6.07500000       0.00000162      -0.00000090       0.00000160
Al       6.07500000       2.02500000       4.05000000       0.00000136      -0.00000015      -0.00000046
Al       4.05000000       4.05000000       0.00000000      -0.00000059      -0.00000049      -0.00000070
Al       4.05000000       6.07500000       2.02500000      -0.00000063       0.00000130      -0.00000001
Al       6.07500000       4.05000000       2.02500000       0.00000133      -0.00000046      -0.00000015
Al       6.07500000       6.07500000       0.00000000       0.00000156       0.00000152      -0.00000092
Al       4.05000000       4.05000000       4.05000000      -0.00000072      -0.00000053      -0.00000066
Al       4.05000000       6.07500000       6.07500000      -0.00000053       0.00000150       0.00000147
Al       6.07500000       4.05000000       6.07500000       0.00000165      -0.00000042       0.00000152
Al       6.07500000       6.07500000       4.05000000       0.00000158       0.00000155      -0.00000058
32
Lattice="8.1 0.0 0.0 0.0 8.1 0.0 0.0 0.0 8.1" Properties=species:S:1:pos:R:3:MACE_forces:R:3 configuration_label="Displaced FCC aluminum" MACE_total_energy_eV=-118.70216369628906 MACE_energy_per_atom_eV=-3.709442615509033 MACE_stress="-0.0011965412413701415 -0.001186905661597848 -0.0011869047302752733 -2.0733714745091447e-09 8.30235324933426e-11 4.787357732460862e-10" pbc="T T T"
Al       0.05000000       0.00000000       0.00000000      -0.16058496      -0.00000084      -0.00000074
Al       0.00000000       2.02500000       2.02500000      -0.00200103      -0.00052160      -0.00052171
Al       2.02500000       0.00000000       2.02500000       0.02230593      -0.00000023       0.02739123
Al       2.02500000       2.02500000       0.00000000       0.02230593       0.02739120      -0.00000024
Al       0.00000000       0.00000000       4.05000000      -0.00176801      -0.00000076      -0.00000057
Al       0.00000000       2.02500000       6.07500000      -0.00200120      -0.00052166       0.00052289
Al       2.02500000       0.00000000       6.07500000       0.02230616      -0.00000071      -0.02739001
Al       2.02500000       2.02500000       4.05000000      -0.00123807       0.00071735      -0.00000066
Al       0.00000000       4.05000000       0.00000000      -0.00176844      -0.00000035      -0.00000087
Al       0.00000000       6.07500000       2.02500000      -0.00200136       0.00052296      -0.00052185
Al       2.02500000       4.05000000       2.02500000      -0.00123807      -0.00000067       0.00071733
Al       2.02500000       6.07500000       0.00000000       0.02230614      -0.02739010      -0.00000073
Al       0.00000000       4.05000000       4.05000000      -0.00010942      -0.00000052      -0.00000047
Al       0.00000000       6.07500000       6.07500000      -0.00200156       0.00052285       0.00052305
Al       2.02500000       4.05000000       6.07500000      -0.00123801      -0.00000059      -0.00071619
Al       2.02500000       6.07500000       4.05000000      -0.00123812      -0.00071622      -0.00000051
Al       4.05000000       0.00000000       0.00000000       0.01507545      -0.00000069      -0.00000084
Al       4.05000000       2.02500000       2.02500000      -0.00335384       0.00000885       0.00000875
Al       6.07500000       0.00000000       2.02500000       0.01980298      -0.00000055      -0.02368890
Al       6.07500000       2.02500000       0.00000000       0.01980277      -0.02368860      -0.00000043
Al       4.05000000       0.00000000       4.05000000       0.00603870      -0.00000067      -0.00000059
Al       4.05000000       2.02500000       6.07500000      -0.00335411       0.00000899      -0.00000762
Al       6.07500000       0.00000000       6.07500000       0.01980298      -0.00000113       0.02369018
Al       6.07500000       2.02500000       4.05000000      -0.00135716      -0.00048917      -0.00000070
Al       4.05000000       4.05000000       0.00000000       0.00603887      -0.00000054      -0.00000075
Al       4.05000000       6.07500000       2.02500000      -0.00335402      -0.00000779       0.00000891
Al       6.07500000       4.05000000       2.02500000      -0.00135700      -0.00000053      -0.00048946
Al       6.07500000       6.07500000       0.00000000       0.01980301       0.02368977      -0.00000102
Al       4.05000000       4.05000000       4.05000000       0.00044292      -0.00000058      -0.00000045
Al       4.05000000       6.07500000       6.07500000      -0.00335385      -0.00000757      -0.00000736
Al       6.07500000       4.05000000       6.07500000      -0.00135680      -0.00000035       0.00049083
Al       6.07500000       6.07500000       4.05000000      -0.00135682       0.00049043      -0.00000052
