2
Lattice="1.39468 2.300681 0.0 -1.39468 2.300681 0.0 0.0 1.356451 3.880838" Properties=species:S:1:pos:R:3:initial_magmoms:R:1 source="Materials Project" material_id=mp-1228854 phase_key=AlNi query_formula=AlNi formula_pretty=AlNi selected_candidate=F selection_rank=3 retrieval_time_utc=2026-07-20T14:16:25Z energy_above_hull_eV_per_atom=0.24665903 formation_energy_per_atom_eV=-0.43824211999999996 is_stable=F pbc="T T T"
Al       0.00000000       0.00000000       0.00000000       0.00000000
Ni       0.00000000       2.97890650       1.94041900      -0.00000000
