1
Lattice="2.4828097018132738 2.9597934643556225e-08 1.4334506293291136 0.8276032618429603 2.3408154611649232 1.4334506293291096 1.0606972421763838e-07 7.500261526955376e-08 2.8669020787731894" Properties=species:S:1:pos:R:3 source="Materials Project" material_id=mp-134 element=Al formula_pretty=Al retrieval_time_utc=2026-07-28T07:07:12Z step7_role=mace_relaxed_elemental_reference energy_above_hull_eV_per_atom=0.0 is_stable=T space_group_symbol=Fm-3m space_group_number=225 materials_project_database_version=2026.04.13 step7_element=Al step7_material_id=mp-134 step7_model=MACE-MP-0 step7_model_value=small step7_device=cpu step7_dtype=float64 step7_convergence_status=CONVERGED step7_optimizer_steps=7 step7_initial_energy_eV=-3.709129750225296 step7_final_energy_eV=-3.7095879398802807 step7_final_energy_per_atom_eV=-3.7095879398802807 step7_execution_timestamp_utc=2026-07-28T07:07:44Z step7_configuration_sha256=d1bd8629a98e50c17bfc8e032937dde0671a1a33b034ce23729da74c5d84941f pbc="T T T"
Al 0 0 0
