1
Lattice="2.1507166798957718 6.31882838371571e-08 1.2417168436781552 0.7169052826612454 2.0277155148610064 1.2417168436781565 -1.415316601635861e-09 -1.00077870429875e-09 2.4834336797013545" Properties=species:S:1:pos:R:3 source="Materials Project" material_id=mp-23 element=Ni formula_pretty=Ni retrieval_time_utc=2026-07-28T07:07:13Z step7_role=mace_relaxed_elemental_reference energy_above_hull_eV_per_atom=0.0 is_stable=T space_group_symbol=Fm-3m space_group_number=225 materials_project_database_version=2026.04.13 step7_element=Ni step7_material_id=mp-23 step7_model=MACE-MP-0 step7_model_value=small step7_device=cpu step7_dtype=float64 step7_convergence_status=CONVERGED step7_optimizer_steps=4 step7_initial_energy_eV=-5.726033697320794 step7_final_energy_eV=-5.732347319930138 step7_final_energy_per_atom_eV=-5.732347319930138 step7_execution_timestamp_utc=2026-07-28T07:07:44Z step7_configuration_sha256=d1bd8629a98e50c17bfc8e032937dde0671a1a33b034ce23729da74c5d84941f pbc="T T T"
Ni 0 0 0
